0 141 528
1 8 595
2 116 15
3 223 104
4 236 160
5 637 265
6 55 45
7 116 86
8 422 143
9 8 215
10 79 61
11 541 25
12 118 82
13 321 181
14 35 18
15 115 102
16 224 184
17 594 433
18 24 318
19 118 626
20 39 25
21 230 123
22 271 47
23 446 58
24 229 20
25 198 139
26 266 39
27 63 32
28 5 9